NAME          BLANK   
ROWS
 N  OBJROW
 L  R0000000
COLUMNS
    C0000000  OBJROW     -550.         R0000000  66.         
    C0000001  OBJROW     -211.         R0000000  953.        
    C0000002  OBJROW     -895.         R0000000  942.        
    C0000003  OBJROW     -432.         R0000000  406.        
    C0000004  OBJROW     -705.         R0000000  38.         
    C0000005  OBJROW     -316.         R0000000  3.          
    C0000006  OBJROW     -388.         R0000000  428.        
    C0000007  OBJROW     -159.         R0000000  351.        
    C0000008  OBJROW     -121.         R0000000  768.        
    C0000009  OBJROW     -18.          R0000000  864.        
    C0000010  OBJROW     -211.         R0000000  876.        
    C0000011  OBJROW     -317.         R0000000  485.        
    C0000012  OBJROW     -164.         R0000000  836.        
    C0000013  OBJROW     -162.         R0000000  60.         
    C0000014  OBJROW     -554.         R0000000  994.        
    C0000015  OBJROW     -128.         R0000000  162.        
    C0000016  OBJROW     -619.         R0000000  727.        
    C0000017  OBJROW     -164.         R0000000  928.        
    C0000018  OBJROW     -709.         R0000000  49.         
RHS
    RHS       R0000000  15060.      
BOUNDS
 BV BOUND     C0000000  1.          
 BV BOUND     C0000001  1.          
 BV BOUND     C0000002  1.          
 BV BOUND     C0000003  1.          
 BV BOUND     C0000004  1.          
 BV BOUND     C0000005  1.          
 BV BOUND     C0000006  1.          
 BV BOUND     C0000007  1.          
 BV BOUND     C0000008  1.          
 BV BOUND     C0000009  1.          
 BV BOUND     C0000010  1.          
 BV BOUND     C0000011  1.          
 BV BOUND     C0000012  1.          
 BV BOUND     C0000013  1.          
 BV BOUND     C0000014  1.          
 BV BOUND     C0000015  1.          
 BV BOUND     C0000016  1.          
 BV BOUND     C0000017  1.          
 BV BOUND     C0000018  1.          
ENDATA
